p cnf 386 460
-10 14 -5 21 22 0
-10 14 -5 21 -22 0
-10 14 -5 -21 23 0
-10 14 -5 -21 -23 0
17 4 13 24 25 0
17 4 13 24 -25 0
17 4 13 -24 26 0
17 4 13 -24 -26 0
20 -15 -8 27 28 0
20 -15 -8 27 -28 0
20 -15 -8 -27 29 0
20 -15 -8 -27 -29 0
12 -6 -20 30 31 0
12 -6 -20 30 -31 0
12 -6 -20 -30 32 0
12 -6 -20 -30 -32 0
15 -5 -1 33 34 0
15 -5 -1 33 -34 0
15 -5 -1 -33 35 0
15 -5 -1 -33 -35 0
-16 8 -9 36 37 0
-16 8 -9 36 -37 0
-16 8 -9 -36 38 0
-16 8 -9 -36 -38 0
11 18 17 39 40 0
11 18 17 39 -40 0
11 18 17 -39 41 0
11 18 17 -39 -41 0
-11 -6 -17 42 43 0
-11 -6 -17 42 -43 0
-11 -6 -17 -42 44 0
-11 -6 -17 -42 -44 0
9 3 17 45 46 0
9 3 17 45 -46 0
9 3 17 -45 47 0
9 3 17 -45 -47 0
-4 -13 11 48 49 0
-4 -13 11 48 -49 0
-4 -13 11 -48 50 0
-4 -13 11 -48 -50 0
-18 -7 -6 51 52 0
-18 -7 -6 51 -52 0
-18 -7 -6 -51 53 0
-18 -7 -6 -51 -53 0
17 -16 -1 54 55 0
17 -16 -1 54 -55 0
17 -16 -1 -54 56 0
17 -16 -1 -54 -56 0
-7 15 -8 57 58 0
-7 15 -8 57 -58 0
-7 15 -8 -57 59 0
-7 15 -8 -57 -59 0
1 3 5 60 61 0
1 3 5 60 -61 0
1 3 5 -60 62 0
1 3 5 -60 -62 0
13 -2 12 63 64 0
13 -2 12 63 -64 0
13 -2 12 -63 65 0
13 -2 12 -63 -65 0
10 -17 -16 66 67 0
10 -17 -16 66 -67 0
10 -17 -16 -66 68 0
10 -17 -16 -66 -68 0
5 12 13 69 70 0
5 12 13 69 -70 0
5 12 13 -69 71 0
5 12 13 -69 -71 0
-13 -5 10 72 73 0
-13 -5 10 72 -73 0
-13 -5 10 -72 74 0
-13 -5 10 -72 -74 0
-11 13 -10 75 76 0
-11 13 -10 75 -76 0
-11 13 -10 -75 77 0
-11 13 -10 -75 -77 0
-13 -4 -9 78 79 0
-13 -4 -9 78 -79 0
-13 -4 -9 -78 80 0
-13 -4 -9 -78 -80 0
5 -6 15 81 82 0
5 -6 15 81 -82 0
5 -6 15 -81 83 0
5 -6 15 -81 -83 0
12 19 -2 84 85 0
12 19 -2 84 -85 0
12 19 -2 -84 86 0
12 19 -2 -84 -86 0
-7 17 16 87 88 0
-7 17 16 87 -88 0
-7 17 16 -87 89 0
-7 17 16 -87 -89 0
-2 -18 11 90 91 0
-2 -18 11 90 -91 0
-2 -18 11 -90 92 0
-2 -18 11 -90 -92 0
11 -4 -16 93 94 0
11 -4 -16 93 -94 0
11 -4 -16 -93 95 0
11 -4 -16 -93 -95 0
-12 -5 -8 96 97 0
-12 -5 -8 96 -97 0
-12 -5 -8 -96 98 0
-12 -5 -8 -96 -98 0
4 17 19 99 100 0
4 17 19 99 -100 0
4 17 19 -99 101 0
4 17 19 -99 -101 0
14 18 5 102 103 0
14 18 5 102 -103 0
14 18 5 -102 104 0
14 18 5 -102 -104 0
11 -2 8 105 106 0
11 -2 8 105 -106 0
11 -2 8 -105 107 0
11 -2 8 -105 -107 0
9 -10 11 108 109 0
9 -10 11 108 -109 0
9 -10 11 -108 110 0
9 -10 11 -108 -110 0
18 -8 -14 111 112 0
18 -8 -14 111 -112 0
18 -8 -14 -111 113 0
18 -8 -14 -111 -113 0
3 8 -2 114 115 0
3 8 -2 114 -115 0
3 8 -2 -114 116 0
3 8 -2 -114 -116 0
-3 5 16 117 118 0
-3 5 16 117 -118 0
-3 5 16 -117 119 0
-3 5 16 -117 -119 0
2 11 -13 120 121 0
2 11 -13 120 -121 0
2 11 -13 -120 122 0
2 11 -13 -120 -122 0
-11 -20 -10 123 124 0
-11 -20 -10 123 -124 0
-11 -20 -10 -123 125 0
-11 -20 -10 -123 -125 0
-14 4 12 126 127 0
-14 4 12 126 -127 0
-14 4 12 -126 128 0
-14 4 12 -126 -128 0
2 -6 -10 129 130 0
2 -6 -10 129 -130 0
2 -6 -10 -129 131 0
2 -6 -10 -129 -131 0
-15 17 -3 132 133 0
-15 17 -3 132 -133 0
-15 17 -3 -132 134 0
-15 17 -3 -132 -134 0
16 -10 -2 135 136 0
16 -10 -2 135 -136 0
16 -10 -2 -135 137 0
16 -10 -2 -135 -137 0
-8 -3 12 138 139 0
-8 -3 12 138 -139 0
-8 -3 12 -138 140 0
-8 -3 12 -138 -140 0
-15 -12 7 141 142 0
-15 -12 7 141 -142 0
-15 -12 7 -141 143 0
-15 -12 7 -141 -143 0
-13 -20 -19 144 145 0
-13 -20 -19 144 -145 0
-13 -20 -19 -144 146 0
-13 -20 -19 -144 -146 0
-11 19 -1 147 148 0
-11 19 -1 147 -148 0
-11 19 -1 -147 149 0
-11 19 -1 -147 -149 0
-8 11 -4 150 151 0
-8 11 -4 150 -151 0
-8 11 -4 -150 152 0
-8 11 -4 -150 -152 0
-2 14 8 153 154 0
-2 14 8 153 -154 0
-2 14 8 -153 155 0
-2 14 8 -153 -155 0
11 13 -9 156 157 0
11 13 -9 156 -157 0
11 13 -9 -156 158 0
11 13 -9 -156 -158 0
13 -7 -16 159 160 0
13 -7 -16 159 -160 0
13 -7 -16 -159 161 0
13 -7 -16 -159 -161 0
19 -10 -20 162 163 0
19 -10 -20 162 -163 0
19 -10 -20 -162 164 0
19 -10 -20 -162 -164 0
-16 -10 19 165 166 0
-16 -10 19 165 -166 0
-16 -10 19 -165 167 0
-16 -10 19 -165 -167 0
-15 6 -16 168 169 0
-15 6 -16 168 -169 0
-15 6 -16 -168 170 0
-15 6 -16 -168 -170 0
5 20 6 171 172 0
5 20 6 171 -172 0
5 20 6 -171 173 0
5 20 6 -171 -173 0
18 -14 -19 174 175 0
18 -14 -19 174 -175 0
18 -14 -19 -174 176 0
18 -14 -19 -174 -176 0
5 -3 -1 177 178 0
5 -3 -1 177 -178 0
5 -3 -1 -177 179 0
5 -3 -1 -177 -179 0
-19 -6 9 180 181 0
-19 -6 9 180 -181 0
-19 -6 9 -180 182 0
-19 -6 9 -180 -182 0
6 15 -7 183 184 0
6 15 -7 183 -184 0
6 15 -7 -183 185 0
6 15 -7 -183 -185 0
19 -12 -14 186 187 0
19 -12 -14 186 -187 0
19 -12 -14 -186 188 0
19 -12 -14 -186 -188 0
8 -14 13 189 190 0
8 -14 13 189 -190 0
8 -14 13 -189 191 0
8 -14 13 -189 -191 0
-17 5 -9 192 193 0
-17 5 -9 192 -193 0
-17 5 -9 -192 194 0
-17 5 -9 -192 -194 0
17 7 6 195 196 0
17 7 6 195 -196 0
17 7 6 -195 197 0
17 7 6 -195 -197 0
-7 8 19 198 199 0
-7 8 19 198 -199 0
-7 8 19 -198 200 0
-7 8 19 -198 -200 0
-7 -8 -19 201 202 0
-7 -8 -19 201 -202 0
-7 -8 -19 -201 203 0
-7 -8 -19 -201 -203 0
-20 19 10 204 205 0
-20 19 10 204 -205 0
-20 19 10 -204 206 0
-20 19 10 -204 -206 0
19 -2 13 207 208 0
19 -2 13 207 -208 0
19 -2 13 -207 209 0
19 -2 13 -207 -209 0
7 16 -12 210 211 0
7 16 -12 210 -211 0
7 16 -12 -210 212 0
7 16 -12 -210 -212 0
-7 18 15 213 214 0
-7 18 15 213 -214 0
-7 18 15 -213 215 0
-7 18 15 -213 -215 0
7 13 -1 216 217 0
7 13 -1 216 -217 0
7 13 -1 -216 218 0
7 13 -1 -216 -218 0
-6 4 -5 219 220 0
-6 4 -5 219 -220 0
-6 4 -5 -219 221 0
-6 4 -5 -219 -221 0
16 11 7 222 223 0
16 11 7 222 -223 0
16 11 7 -222 224 0
16 11 7 -222 -224 0
10 5 14 225 226 0
10 5 14 225 -226 0
10 5 14 -225 227 0
10 5 14 -225 -227 0
-17 -13 20 228 229 0
-17 -13 20 228 -229 0
-17 -13 20 -228 230 0
-17 -13 20 -228 -230 0
14 19 4 231 232 0
14 19 4 231 -232 0
14 19 4 -231 233 0
14 19 4 -231 -233 0
7 15 -9 234 235 0
7 15 -9 234 -235 0
7 15 -9 -234 236 0
7 15 -9 -234 -236 0
-6 -15 -2 237 238 0
-6 -15 -2 237 -238 0
-6 -15 -2 -237 239 0
-6 -15 -2 -237 -239 0
-16 -5 -18 240 241 0
-16 -5 -18 240 -241 0
-16 -5 -18 -240 242 0
-16 -5 -18 -240 -242 0
-5 10 4 243 244 0
-5 10 4 243 -244 0
-5 10 4 -243 245 0
-5 10 4 -243 -245 0
12 -11 -5 246 247 0
12 -11 -5 246 -247 0
12 -11 -5 -246 248 0
12 -11 -5 -246 -248 0
16 -6 -4 249 250 0
16 -6 -4 249 -250 0
16 -6 -4 -249 251 0
16 -6 -4 -249 -251 0
14 5 -20 252 253 0
14 5 -20 252 -253 0
14 5 -20 -252 254 0
14 5 -20 -252 -254 0
-3 9 13 255 256 0
-3 9 13 255 -256 0
-3 9 13 -255 257 0
-3 9 13 -255 -257 0
-20 15 -13 258 259 0
-20 15 -13 258 -259 0
-20 15 -13 -258 260 0
-20 15 -13 -258 -260 0
8 -13 19 261 262 0
8 -13 19 261 -262 0
8 -13 19 -261 263 0
8 -13 19 -261 -263 0
4 19 15 264 265 0
4 19 15 264 -265 0
4 19 15 -264 266 0
4 19 15 -264 -266 0
5 1 -10 267 268 0
5 1 -10 267 -268 0
5 1 -10 -267 269 0
5 1 -10 -267 -269 0
-19 11 3 270 271 0
-19 11 3 270 -271 0
-19 11 3 -270 272 0
-19 11 3 -270 -272 0
-1 5 3 273 274 0
-1 5 3 273 -274 0
-1 5 3 -273 275 0
-1 5 3 -273 -275 0
8 -10 -18 276 277 0
8 -10 -18 276 -277 0
8 -10 -18 -276 278 0
8 -10 -18 -276 -278 0
16 2 -10 279 280 0
16 2 -10 279 -280 0
16 2 -10 -279 281 0
16 2 -10 -279 -281 0
15 -13 17 282 283 0
15 -13 17 282 -283 0
15 -13 17 -282 284 0
15 -13 17 -282 -284 0
17 15 20 285 286 0
17 15 20 285 -286 0
17 15 20 -285 287 0
17 15 20 -285 -287 0
6 -11 19 288 289 0
6 -11 19 288 -289 0
6 -11 19 -288 290 0
6 -11 19 -288 -290 0
-16 14 13 291 292 0
-16 14 13 291 -292 0
-16 14 13 -291 293 0
-16 14 13 -291 -293 0
294 295 297 301 309 0
294 295 297 301 -309 0
294 295 297 -301 310 0
294 295 297 -301 -310 0
294 295 -297 302 311 0
294 295 -297 302 -311 0
294 295 -297 -302 312 0
294 295 -297 -302 -312 0
294 -295 298 303 313 0
294 -295 298 303 -313 0
294 -295 298 -303 314 0
294 -295 298 -303 -314 0
294 -295 -298 304 315 0
294 -295 -298 304 -315 0
294 -295 -298 -304 316 0
294 -295 -298 -304 -316 0
-294 296 299 305 317 0
-294 296 299 305 -317 0
-294 296 299 -305 318 0
-294 296 299 -305 -318 0
-294 296 -299 306 319 0
-294 296 -299 306 -319 0
-294 296 -299 -306 320 0
-294 296 -299 -306 -320 0
-294 -296 300 307 321 0
-294 -296 300 307 -321 0
-294 -296 300 -307 322 0
-294 -296 300 -307 -322 0
-294 -296 -300 308 323 0
-294 -296 -300 308 -323 0
-294 -296 -300 -308 324 0
-294 -296 -300 -308 -324 0
325 326 328 332 340 0
325 326 328 332 -340 0
325 326 328 -332 341 0
325 326 328 -332 -341 0
325 326 -328 333 342 0
325 326 -328 333 -342 0
325 326 -328 -333 343 0
325 326 -328 -333 -343 0
325 -326 329 334 344 0
325 -326 329 334 -344 0
325 -326 329 -334 345 0
325 -326 329 -334 -345 0
325 -326 -329 335 346 0
325 -326 -329 335 -346 0
325 -326 -329 -335 347 0
325 -326 -329 -335 -347 0
-325 327 330 336 348 0
-325 327 330 336 -348 0
-325 327 330 -336 349 0
-325 327 330 -336 -349 0
-325 327 -330 337 350 0
-325 327 -330 337 -350 0
-325 327 -330 -337 351 0
-325 327 -330 -337 -351 0
-325 -327 331 338 352 0
-325 -327 331 338 -352 0
-325 -327 331 -338 353 0
-325 -327 331 -338 -353 0
-325 -327 -331 339 354 0
-325 -327 -331 339 -354 0
-325 -327 -331 -339 355 0
-325 -327 -331 -339 -355 0
356 357 359 363 371 0
356 357 359 363 -371 0
356 357 359 -363 372 0
356 357 359 -363 -372 0
356 357 -359 364 373 0
356 357 -359 364 -373 0
356 357 -359 -364 374 0
356 357 -359 -364 -374 0
356 -357 360 365 375 0
356 -357 360 365 -375 0
356 -357 360 -365 376 0
356 -357 360 -365 -376 0
356 -357 -360 366 377 0
356 -357 -360 366 -377 0
356 -357 -360 -366 378 0
356 -357 -360 -366 -378 0
-356 358 361 367 379 0
-356 358 361 367 -379 0
-356 358 361 -367 380 0
-356 358 361 -367 -380 0
-356 358 -361 368 381 0
-356 358 -361 368 -381 0
-356 358 -361 -368 382 0
-356 358 -361 -368 -382 0
-356 -358 362 369 383 0
-356 -358 362 369 -383 0
-356 -358 362 -369 384 0
-356 -358 362 -369 -384 0
-356 -358 -362 370 385 0
-356 -358 -362 370 -385 0
-356 -358 -362 -370 386 0
-356 -358 -362 -370 -386 0

